solving instance uflp nldep gunluk ../../../../../instances/uflp/gunluk/gunluk-30-60-6.txt sincos
Set parameter TokenServer to value "licences.gerad.lan"
Set parameter MIPGap to value 1e-06
Set parameter FuncPieceError to value 1e-06
Set parameter Threads to value 1
Set parameter FuncPieces to value -2
Set parameter TimeLimit to value 3600
Gurobi Optimizer version 12.0.2 build v12.0.2rc0 (linux64 - "AlmaLinux 9.6 (Sage Margay)")

CPU model: Intel(R) Xeon(R) Gold 6258R CPU @ 2.70GHz, instruction set [SSE2|AVX|AVX2|AVX512]
Thread count: 56 physical cores, 56 logical processors, using up to 1 threads

Non-default parameters:
TimeLimit  3600
MIPGap  1e-06
Threads  1
FuncPieces  -2
FuncPieceError  1e-06

Optimize a model with 1980 rows, 2010 columns and 7470 nonzeros
Model fingerprint: 0x1b08b425
Model has 60 function constraints treated as nonlinear
  30 SIN, 30 COS
Variable types: 1980 continuous, 30 integer (30 binary)
Coefficient statistics:
  Matrix range     [9e-03, 1e+02]
  Objective range  [6e-01, 6e+01]
  Bounds range     [1e+00, 1e+10]
  RHS range        [5e-01, 5e+01]
Warning: Model contains large bounds
         Consider reformulating model or setting NumericFocus parameter
         to avoid numerical issues.
Presolve removed 60 rows and 60 columns
Presolve time: 0.01s
Presolved: 2400 rows, 1951 columns, 8250 nonzeros
Presolved model has 60 nonlinear constraint(s)

Solving non-convex MINLP

Variable types: 1921 continuous, 30 integer (30 binary)
Found heuristic solution: objective 1586.4996294

Root relaxation: objective 2.605079e+02, 176 iterations, 0.00 seconds (0.00 work units)

    Nodes    |    Current Node    |     Objective Bounds      |     Work
 Expl Unexpl |  Obj  Depth IntInf | Incumbent    BestBd   Gap | It/Node Time

     0     0  260.50794    0   55 1586.49963  260.50794  83.6%     -    0s
H    0     0                     339.4876930  260.50794  23.3%     -    0s
     0     0  261.22411    0   28  339.48769  261.22411  23.1%     -    0s
H    0     0                     339.1197265  261.22411  23.0%     -    0s
     0     0  261.23885    0   27  339.11973  261.23885  23.0%     -    0s
H    0     0                     337.9082404  261.23885  22.7%     -    0s
H    0     0                     337.3040779  261.23885  22.6%     -    0s
     0     0  261.23885    0   27  337.30408  261.23885  22.6%     -    0s
     0     2  269.74678    0   27  337.30408  269.74678  20.0%     -    0s
H   56    27                     332.9305722  273.64351  17.8%  20.7    0s
H   56    27                     331.9323905  273.64351  17.6%  20.7    0s
*  629   260              34     331.9312836  294.26772  11.3%  12.8    1s
*  632   261              35     331.9302409  294.26772  11.3%  13.0    1s
H  910   299                     331.9198277  301.01245  9.31%  12.1    2s
H  910   299                     331.9153330  301.01245  9.31%  12.1    2s
H  910   299                     331.9150040  301.01245  9.31%  12.1    2s
  1966   135  324.61118   12   29  331.91500  319.30873  3.80%  12.0    5s
* 2226    10              30     331.9149906  331.58322  0.10%  12.0    5s
* 2232    10              31     331.9149872  331.58322  0.10%  12.0    5s
* 2237     9              32     331.9149641  331.58322  0.10%  12.0    5s

Explored 2249 nodes (27257 simplex iterations) in 5.58 seconds (3.13 work units)
Thread count was 1 (of 56 available processors)

Solution count 10: 331.915 331.915 331.915 ... 332.931

Optimal solution found (tolerance 1.00e-06)
Best objective 3.319149640693e+02, best bound 3.319149640693e+02, gap 0.0000%

User-callback calls 8423, time in user-callback 0.01 sec
Generating Gunluk and Lee data file ../../../../../instances/uflp/gunluk/gunluk-30-60-6.txt
primal_bound = 331.914964069251, dual_bound = 331.9149640692528, gap = 5.309028442349419e-13, time = 5.59
OPTIMAL LOCATIONS:
y[1] = 1.0
y[3] = 1.0
y[4] = 1.0
y[5] = 1.0
y[6] = 1.0
y[7] = 1.0
y[9] = 1.0
y[10] = 1.0
y[12] = 1.0
y[13] = 1.0
y[15] = 1.0
y[16] = 1.0
y[17] = 1.0
y[18] = 1.0
y[19] = 1.0
y[20] = 1.0
y[21] = 1.0
y[22] = 1.0
y[23] = 1.0
y[26] = 1.0
y[27] = 1.0
y[28] = 1.0
y[29] = 1.0
y[30] = 1.0
OPTIMAL WAREHOUSING:
f[1] = 55.0
f[3] = 101.0
f[4] = 267.0
f[5] = 70.10111848702965
f[6] = 61.07436885375523
f[7] = 134.92563114624477
f[9] = 168.0
f[10] = 12.0
f[12] = 161.0
f[13] = 163.0
f[15] = 245.0
f[16] = 86.0
f[17] = 73.0
f[18] = 81.0
f[19] = 138.0
f[20] = 12.0
f[21] = 37.0
f[22] = 145.89888151297035
f[23] = 185.0
f[26] = 125.0
f[27] = 92.0
f[28] = 123.0
f[29] = 92.0
f[30] = 307.0
OPTIMAL WAREHOUSING COSTS:
nlobj[1] = 1.5102919676440187
nlobj[2] = 0.0
nlobj[3] = 0.033625641262275685
nlobj[4] = 7.923120254032455
nlobj[5] = 1.75781417680194
nlobj[6] = 2.132044412777894
nlobj[7] = 2.939703259768134
nlobj[8] = 0.0
nlobj[9] = 3.4174451763127536
nlobj[10] = 0.6862770120014225
nlobj[11] = 0.0
nlobj[12] = 3.8037894151220186
nlobj[13] = 0.055920293466844906
nlobj[14] = 0.0
nlobj[15] = 5.894947234440689
nlobj[16] = 0.7826461150899231
nlobj[17] = 0.30265361460496365
nlobj[18] = 0.44016275254752824
nlobj[19] = 3.893464778935968
nlobj[20] = 0.9586091586736316
nlobj[21] = 0.7235706055445554
nlobj[22] = 4.6335031423750905
nlobj[23] = 0.9741371145538125
nlobj[24] = 0.0
nlobj[25] = 0.0
nlobj[26] = 0.08335592433830419
nlobj[27] = 1.7250876855522357
nlobj[28] = 2.417709719690162
nlobj[29] = 0.0616102744792133
nlobj[30] = 7.284699592679207
OPTIMAL ASSIGNMENTS:
x[1, 6] = 1.0
x[1, 36] = 1.0
x[3, 25] = 1.0
x[3, 43] = 1.0
x[4, 7] = 1.0
x[4, 33] = 1.0
x[4, 51] = 1.0
x[5, 14] = 1.0
x[5, 24] = 0.1879243789783478
x[6, 26] = 1.0
x[6, 42] = 0.382557484917832
x[7, 16] = 1.0
x[7, 28] = 1.0
x[7, 42] = 0.6174425150821681
x[9, 10] = 1.0
x[9, 11] = 1.0
x[9, 12] = 1.0
x[9, 22] = 1.0
x[9, 39] = 1.0
x[10, 3] = 1.0
x[12, 29] = 1.0
x[12, 30] = 1.0
x[12, 45] = 1.0
x[13, 1] = 1.0
x[13, 9] = 1.0
x[13, 20] = 1.0
x[13, 54] = 1.0
x[13, 58] = 1.0
x[15, 8] = 1.0
x[15, 27] = 1.0
x[15, 35] = 1.0
x[15, 40] = 1.0
x[15, 47] = 1.0
x[16, 52] = 1.0
x[16, 57] = 1.0
x[17, 18] = 1.0
x[18, 49] = 1.0
x[18, 56] = 1.0
x[19, 34] = 1.0
x[19, 46] = 1.0
x[19, 59] = 1.0
x[20, 21] = 1.0
x[21, 53] = 1.0
x[22, 15] = 1.0
x[22, 24] = 0.8120756210216522
x[22, 31] = 1.0
x[23, 23] = 1.0
x[23, 32] = 1.0
x[23, 37] = 1.0
x[26, 2] = 1.0
x[26, 55] = 1.0
x[27, 19] = 1.0
x[28, 17] = 1.0
x[28, 48] = 1.0
x[29, 41] = 1.0
x[29, 50] = 1.0
x[30, 4] = 1.0
x[30, 5] = 1.0
x[30, 13] = 1.0
x[30, 38] = 1.0
x[30, 44] = 1.0
x[30, 60] = 1.0
fixed costs = 1201.0
assignment costs = 277.4787747465559
warehousing costs = 54.43618932269506
total cost = 331.91496406925097
